tsp_instances/TSP20/instance76.tsp
NODE_COORD_SECTION
0 146 47
1 135 92
2 10 5
3 173 56
4 195 45
5 151 28
6 8 5
7 37 89
8 196 137
9 45 57
10 198 6
11 89 113
12 191 48
13 164 131
14 13 164
15 4 39
16 155 85
17 83 130
18 116 85
19 4 160
