tsp_instances/TSP20/instance76.opt.tour
TOUR_SECTION
1
3
7
16
10
8
20
15
18
12
19
2
14
9
17
4
13
5
11
6
-1